SCIP version 8.0.0 [precision: 8 byte] [memory: block] [mode: optimized] [LP solver: SoPlex 6.0.0] [GitHash: a740f0891e]
Copyright (C) 2002-2021 Konrad-Zuse-Zentrum fuer Informationstechnik Berlin (ZIB)

External libraries: 
  SoPlex 6.0.0         Linear Programming Solver developed at Zuse Institute Berlin (soplex.zib.de) [GitHash: 71a5873d]
  CppAD 20180000.0     Algorithmic Differentiation of C++ algorithms developed by B. Bell (github.com/coin-or/CppAD)
  ZLIB 1.2.11          General purpose compression library by J. Gailly and M. Adler (zlib.net)
  GMP 6.2.1            GNU Multiple Precision Arithmetic Library developed by T. Granlund (gmplib.org)
  ZIMPL 3.5.1          Zuse Institute Mathematical Programming Language developed by T. Koch (zimpl.zib.de)
  AMPL/MP 4e2d45c4     AMPL .nl file reader library (github.com/ampl/mp)
  PaPILO 2.0.0         parallel presolve for integer and linear optimization (github.com/scipopt/papilo) [GitHash: 76cafc1]
  bliss 0.73p          Computing Graph Automorphism Groups by T. Junttila and P. Kaski (www.tcs.hut.fi/Software/bliss/)
  Ipopt 3.13.2         Interior Point Optimizer developed by A. Waechter et.al. (github.com/coin-or/Ipopt)

user parameter file <scip.set> not found - using default parameters

read problem <../modeles/3_124.lp>
============

original problem has 750 variables (372 bin, 0 int, 0 impl, 378 cont) and 385 constraints

solve problem
=============

presolving:
(round 1, fast)       3 del vars, 0 del conss, 0 add conss, 798 chg bounds, 0 chg sides, 0 chg coeffs, 0 upgd conss, 0 impls, 3 clqs
(round 2, fast)       3 del vars, 0 del conss, 0 add conss, 798 chg bounds, 0 chg sides, 366 chg coeffs, 0 upgd conss, 0 impls, 3 clqs
   (0.0s) running MILP presolver
   (0.0s) MILP presolver (14 rounds): 0 aggregations, 184 fixings, 0 bound changes
(round 3, medium)     187 del vars, 385 del conss, 303 add conss, 798 chg bounds, 0 chg sides, 366 chg coeffs, 0 upgd conss, 0 impls, 3 clqs
(round 4, exhaustive) 187 del vars, 385 del conss, 303 add conss, 798 chg bounds, 0 chg sides, 366 chg coeffs, 49 upgd conss, 0 impls, 3 clqs
(round 5, exhaustive) 212 del vars, 385 del conss, 303 add conss, 799 chg bounds, 0 chg sides, 366 chg coeffs, 49 upgd conss, 3978 impls, 43 clqs
(round 6, fast)       214 del vars, 394 del conss, 303 add conss, 801 chg bounds, 0 chg sides, 367 chg coeffs, 49 upgd conss, 3978 impls, 43 clqs
(round 7, exhaustive) 214 del vars, 394 del conss, 303 add conss, 801 chg bounds, 0 chg sides, 367 chg coeffs, 64 upgd conss, 3978 impls, 43 clqs
(round 8, exhaustive) 243 del vars, 394 del conss, 303 add conss, 801 chg bounds, 0 chg sides, 367 chg coeffs, 64 upgd conss, 6982 impls, 117 clqs
(round 9, fast)       243 del vars, 405 del conss, 303 add conss, 801 chg bounds, 0 chg sides, 367 chg coeffs, 64 upgd conss, 6982 impls, 117 clqs
(round 10, exhaustive) 243 del vars, 405 del conss, 303 add conss, 801 chg bounds, 0 chg sides, 367 chg coeffs, 77 upgd conss, 6982 impls, 117 clqs
(round 11, exhaustive) 268 del vars, 405 del conss, 303 add conss, 801 chg bounds, 0 chg sides, 367 chg coeffs, 77 upgd conss, 9781 impls, 169 clqs
(round 12, fast)       268 del vars, 417 del conss, 303 add conss, 801 chg bounds, 0 chg sides, 367 chg coeffs, 77 upgd conss, 9781 impls, 169 clqs
(round 13, exhaustive) 268 del vars, 417 del conss, 303 add conss, 801 chg bounds, 0 chg sides, 367 chg coeffs, 87 upgd conss, 9781 impls, 169 clqs
(round 14, exhaustive) 299 del vars, 417 del conss, 303 add conss, 802 chg bounds, 0 chg sides, 367 chg coeffs, 87 upgd conss, 12660 impls, 269 clqs
(round 15, fast)       299 del vars, 436 del conss, 303 add conss, 802 chg bounds, 0 chg sides, 368 chg coeffs, 87 upgd conss, 12660 impls, 269 clqs
   (0.2s) running MILP presolver
   (0.2s) MILP presolver (9 rounds): 0 aggregations, 45 fixings, 0 bound changes
(round 16, medium)     344 del vars, 460 del conss, 303 add conss, 802 chg bounds, 0 chg sides, 368 chg coeffs, 87 upgd conss, 12660 impls, 269 clqs
(round 17, fast)       344 del vars, 465 del conss, 303 add conss, 802 chg bounds, 0 chg sides, 368 chg coeffs, 87 upgd conss, 12660 impls, 269 clqs
(round 18, exhaustive) 344 del vars, 465 del conss, 303 add conss, 802 chg bounds, 0 chg sides, 368 chg coeffs, 90 upgd conss, 12660 impls, 269 clqs
   (0.2s) probing cycle finished: starting next cycle
   (0.2s) probing: 130/192 (67.7%) - 129 fixings, 0 aggregations, 16374 implications, 4 bound changes
   (0.2s) probing aborted: 50/50 successive totally useless probings
(round 19, exhaustive) 363 del vars, 465 del conss, 303 add conss, 805 chg bounds, 0 chg sides, 368 chg coeffs, 90 upgd conss, 16450 impls, 384 clqs
(round 20, fast)       363 del vars, 474 del conss, 303 add conss, 805 chg bounds, 0 chg sides, 371 chg coeffs, 90 upgd conss, 16450 impls, 384 clqs
(round 21, exhaustive) 363 del vars, 474 del conss, 303 add conss, 805 chg bounds, 0 chg sides, 371 chg coeffs, 93 upgd conss, 16450 impls, 384 clqs
   (0.2s) probing: 181/192 (94.3%) - 129 fixings, 0 aggregations, 16378 implications, 4 bound changes
   (0.2s) probing aborted: 50/50 successive totally useless probings
   (0.2s) symmetry computation started: requiring (bin +, int -, cont +), (fixed: bin -, int +, cont -)
   (0.2s) symmetry computation finished: 1 generators found (max: 1500, log10 of symmetry group size: 0.3)
(round 22, exhaustive) 363 del vars, 474 del conss, 304 add conss, 806 chg bounds, 0 chg sides, 371 chg coeffs, 93 upgd conss, 16455 impls, 384 clqs
(round 23, fast)       363 del vars, 474 del conss, 304 add conss, 806 chg bounds, 0 chg sides, 372 chg coeffs, 93 upgd conss, 16455 impls, 384 clqs
presolving (24 rounds: 24 fast, 15 medium, 13 exhaustive):
 363 deleted vars, 474 deleted constraints, 304 added constraints, 806 tightened bounds, 0 added holes, 0 changed sides, 372 changed coefficients
 16455 implications, 384 cliques
presolved problem has 387 variables (192 bin, 0 int, 0 impl, 195 cont) and 206 constraints
      6 constraints of type <varbound>
      3 constraints of type <setppc>
    196 constraints of type <linear>
      1 constraints of type <orbitope>
Presolving Time: 0.23

 time | node  | left  |LP iter|LP it/n|mem/heur|mdpt |vars |cons |rows |cuts |sepa|confs|strbr|  dualbound   | primalbound  |  gap   | compl. 
p 0.2s|     1 |     0 |     5 |     - |   locks|   0 | 387 | 206 | 205 |   0 |  0 |   0 |   0 |-4.800237e+01 |-1.000000e+00 |4700.24%| unknown
  0.2s|     1 |     0 |   115 |     - |    22M |   0 | 387 | 206 | 205 |   0 |  0 |   0 |   0 |-1.731797e+00 |-1.000000e+00 |  73.18%| unknown
  0.2s|     1 |     0 |   115 |     - |    22M |   0 | 387 | 206 | 205 |   0 |  0 |   0 |   0 |-1.731797e+00 |-1.000000e+00 |  73.18%| unknown
  0.2s|     1 |     0 |   117 |     - |    22M |   0 | 387 | 206 | 203 |   1 |  1 |   0 |   0 |-1.731797e+00 |-1.000000e+00 |  73.18%| unknown
  0.2s|     1 |     0 |   118 |     - |    22M |   0 | 387 | 206 | 204 |   2 |  2 |   0 |   0 |-1.731797e+00 |-1.000000e+00 |  73.18%| unknown
  0.3s|     1 |     0 |   119 |     - |    22M |   0 | 387 | 206 | 205 |   3 |  3 |   0 |   0 |-1.731797e+00 |-1.000000e+00 |  73.18%| unknown
r 0.3s|     1 |     0 |   119 |     - |shifting|   0 | 387 | 206 | 205 |   3 |  3 |   0 |   0 |-1.731797e+00 |-1.731797e+00 |   0.00%| unknown
  0.3s|     1 |     0 |   119 |     - |    22M |   0 | 387 | 206 | 205 |   3 |  3 |   0 |   0 |-1.731797e+00 |-1.731797e+00 |   0.00%| unknown

SCIP Status        : problem is solved [optimal solution found]
Solving Time (sec) : 0.25
Solving Nodes      : 1
Primal Bound       : -1.73179723502304e+00 (2 solutions)
Dual Bound         : -1.73179723502304e+00
Gap                : 0.00 %

primal solution (original space):
=================================

objective value:                    -1.73179723502304
y_1,45_                                             1 	(obj:0)
y_2,45_                                             1 	(obj:0)
y_3,45_                                             1 	(obj:0)
t_1,46_                             0.312665349371404 	(obj:0)
x_2_                               -0.580645161290323 	(obj:1)
x_3_                               -0.580592891454377 	(obj:1)
t_1,45_                             0.687334650628596 	(obj:0)
t_3,45_                             0.998379635085697 	(obj:0)
t_3,46_                           0.00162036491430328 	(obj:0)
x_1_                               -0.570559182278342 	(obj:1)
t_2,45_                                             1 	(obj:0)

Statistics
==========

SCIP Status        : problem is solved [optimal solution found]
Total Time         :       0.25
  solving          :       0.25
  presolving       :       0.23 (included in solving)
  reading          :       0.00
  copying          :       0.00 (0 times copied the problem)
Original Problem   :
  Problem name     : ../modeles/3_124.lp
  Variables        : 750 (372 binary, 0 integer, 0 implicit integer, 378 continuous)
  Constraints      : 385 initial, 385 maximal
  Objective        : minimize, 3 non-zeros (abs.min = 1, abs.max = 1)
Presolved Problem  :
  Problem name     : t_../modeles/3_124.lp
  Variables        : 387 (192 binary, 0 integer, 0 implicit integer, 195 continuous)
  Constraints      : 206 initial, 206 maximal
  Objective        : minimize, 192 non-zeros (abs.min = 0.0322581, abs.max = 1.03226)
  Nonzeros         : 1478 constraint, 561 clique table
Presolvers         :   ExecTime  SetupTime  Calls  FixedVars   AggrVars   ChgTypes  ChgBounds   AddHoles    DelCons    AddCons   ChgSides   ChgCoefs
  boundshift       :       0.00       0.00      0          0          0          0          0          0          0          0          0          0
  convertinttobin  :       0.00       0.00      0          0          0          0          0          0          0          0          0          0
  domcol           :       0.01       0.00      7          0          0          0          0          0          0          0          0          0
  dualagg          :       0.00       0.00      0          0          0          0          0          0          0          0          0          0
  dualcomp         :       0.00       0.00      7          0          0          0          0          0          0          0          0          0
  dualinfer        :       0.00       0.00      0          0          0          0          0          0          0          0          0          0
  dualsparsify     :       0.00       0.00      1          0          0          0          0          0          0          0          0          0
  gateextraction   :       0.00       0.00      0          0          0          0          0          0          0          0          0          0
  implics          :       0.00       0.00     15          0          0          0          2          0          0          0          0          0
  inttobinary      :       0.00       0.00      0          0          0          0          0          0          0          0          0          0
  milp             :       0.05       0.00      2        229          0          0          0          0        385        303          0          0
  qpkktref         :       0.00       0.00      0          0          0          0          0          0          0          0          0          0
  redvub           :       0.00       0.00      0          0          0          0          0          0          0          0          0          0
  sparsify         :       0.01       0.00      2          0          0          0          0          0          0          0          0          0
  stuffing         :       0.00       0.00      0          0          0          0          0          0          0          0          0          0
  trivial          :       0.00       0.00     24          0          0          0          0          0          0          0          0          0
  tworowbnd        :       0.00       0.00      0          0          0          0          0          0          0          0          0          0
  dualfix          :       0.00       0.00     24          0          0          0          0          0          0          0          0          0
  genvbounds       :       0.00       0.00      0          0          0          0          0          0          0          0          0          0
  probing          :       0.15       0.00      6        129          0          0          4          0          0          0          0          0
  pseudoobj        :       0.00       0.00      0          0          0          0          0          0          0          0          0          0
  symmetry         :       0.00       0.00      1          0          0          0          0          0          0          1          0          0
  vbounds          :       0.00       0.00      6          0          0          0          0          0          0          0          0          0
  varbound         :       0.00       0.00     33          0          0          0          2          0         84          0          0          3
  setppc           :       0.00       0.00     45          0          0          0          0          0          0          0          0          0
  linear           :       0.01       0.00     37          2          3          0        798          0          5          0          0        369
  orbitope         :       0.00       0.00      1          0          0          0          0          0          0          0          0          0
  benders          :       0.00       0.00      0          0          0          0          0          0          0          0          0          0
  components       :       0.00       0.00      1          0          0          0          0          0          0          0          0          0
  root node        :          -          -      -          3          -          -          6          -          -          -          -          -
Constraints        :     Number  MaxNumber  #Separate #Propagate    #EnfoLP    #EnfoRelax  #EnfoPS    #Check   #ResProp    Cutoffs    DomReds       Cuts    Applied      Conss   Children
  benderslp        :          0          0          0          0          0          0          0         16          0          0          0          0          0          0          0
  integral         :          0          0          0          0          0          0          0         16          0          0          0          0          0          0          0
  varbound         :          6          6          3       2055          0          0          0         10          0          0          3          0          0          0          0
  setppc           :          3          3          3       2050          0          0          0         10          0          0          0          0          0          0          0
  linear           :        196        196          3       2064          0          0          0          5          0        117          0          0          0          0          0
  orbitope         :          1          1          0        178          0          0          0          2          0          0          0          0          0          0          0
  benders          :          0          0          0          0          0          0          0          3          0          0          0          0          0          0          0
  countsols        :          0          0          0          0          0          0          0          3          0          0          0          0          0          0          0
  components       :          0          0          0          0          0          0          0          0          0          0          0          0          0          0          0
Constraint Timings :  TotalTime  SetupTime   Separate  Propagate     EnfoLP     EnfoPS     EnfoRelax   Check    ResProp    SB-Prop
  benderslp        :       0.00       0.00       0.00       0.00       0.00       0.00       0.00       0.00       0.00       0.00
  integral         :       0.00       0.00       0.00       0.00       0.00       0.00       0.00       0.00       0.00       0.00
  varbound         :       0.01       0.00       0.00       0.01       0.00       0.00       0.00       0.00       0.00       0.00
  setppc           :       0.00       0.00       0.00       0.00       0.00       0.00       0.00       0.00       0.00       0.00
  linear           :       0.07       0.00       0.00       0.07       0.00       0.00       0.00       0.00       0.00       0.00
  orbitope         :       0.00       0.00       0.00       0.00       0.00       0.00       0.00       0.00       0.00       0.00
  benders          :       0.00       0.00       0.00       0.00       0.00       0.00       0.00       0.00       0.00       0.00
  countsols        :       0.00       0.00       0.00       0.00       0.00       0.00       0.00       0.00       0.00       0.00
  components       :       0.00       0.00       0.00       0.00       0.00       0.00       0.00       0.00       0.00       0.00
Propagators        : #Propagate   #ResProp    Cutoffs    DomReds
  dualfix          :          2          0          0          0
  genvbounds       :          0          0          0          0
  nlobbt           :          0          0          0          0
  obbt             :          0          0          0          0
  probing          :          0          0          0          0
  pseudoobj        :          8          0          0          0
  redcost          :          5          0          0          3
  rootredcost      :          0          0          0          0
  symmetry         :          0          0          0          0
  vbounds          :        123          0          0          0
Propagator Timings :  TotalTime  SetupTime   Presolve  Propagate    ResProp    SB-Prop
  dualfix          :       0.00       0.00       0.00       0.00       0.00       0.00
  genvbounds       :       0.00       0.00       0.00       0.00       0.00       0.00
  nlobbt           :       0.00       0.00       0.00       0.00       0.00       0.00
  obbt             :       0.00       0.00       0.00       0.00       0.00       0.00
  probing          :       0.15       0.00       0.15       0.00       0.00       0.00
  pseudoobj        :       0.00       0.00       0.00       0.00       0.00       0.00
  redcost          :       0.00       0.00       0.00       0.00       0.00       0.00
  rootredcost      :       0.00       0.00       0.00       0.00       0.00       0.00
  symmetry         :       0.00       0.00       0.00       0.00       0.00       0.00
  vbounds          :       0.00       0.00       0.00       0.00       0.00       0.00
Orbital fixing     :
  vars fixed to 0  :          0
  vars fixed to 1  :          0
Conflict Analysis  :       Time      Calls    Success    DomReds  Conflicts   Literals    Reconvs ReconvLits   Dualrays   Nonzeros   LP Iters   (pool size: [--,--])
  propagation      :       0.00          0          0          -          0        0.0          0        0.0          -          -          -
  infeasible LP    :       0.00          0          0          -          0        0.0          0        0.0          0        0.0          0
  bound exceed. LP :       0.00          0          0          -          0        0.0          0        0.0          0        0.0          0
  strong branching :       0.00          0          0          -          0        0.0          0        0.0          -          -          0
  pseudo solution  :       0.00          0          0          -          0        0.0          0        0.0          -          -          -
  applied globally :       0.00          -          -          0          0        0.0          -          -          0          -          -
  applied locally  :          -          -          -          0          0        0.0          -          -          0          -          -
Separators         :   ExecTime  SetupTime      Calls    Cutoffs    DomReds       Cuts    Applied      Conss
  cut pool         :       0.00                     5          -          -         14          -          -    (maximal pool size: 17)
  aggregation      :       0.00       0.00          3          0          0         11          3          0
  > cmir           :          -          -          -          -          -          -          3          -
  > flowcover      :          -          -          -          -          -          -          0          -
  > knapsackcover  :          -          -          -          -          -          -          0          -
  cgmip            :       0.00       0.00          0          0          0          0          0          0
  clique           :       0.00       0.00          3          0          0          0          0          0
  closecuts        :       0.00       0.00          0          0          0          0          0          0
  convexproj       :       0.00       0.00          0          0          0          0          0          0
  disjunctive      :       0.00       0.00          0          0          0          0          0          0
  eccuts           :       0.00       0.00          0          0          0          0          0          0
  gauge            :       0.00       0.00          0          0          0          0          0          0
  gomory           :       0.00       0.00          3          0          0          6          0          0
  > gomorymi       :          -          -          -          -          -          -          0          -
  > strongcg       :          -          -          -          -          -          -          0          -
  impliedbounds    :       0.00       0.00          3          0          0          0          0          0
  interminor       :       0.00       0.00          0          0          0          0          0          0
  intobj           :       0.00       0.00          0          0          0          0          0          0
  mcf              :       0.00       0.00          1          0          0          0          0          0
  minor            :       0.00       0.00          0          0          0          0          0          0
  mixing           :       0.00       0.00          3          0          0          0          0          0
  oddcycle         :       0.00       0.00          0          0          0          0          0          0
  rapidlearning    :       0.00       0.00          0          0          0          0          0          0
  rlt              :       0.00       0.00          3          0          0          0          0          0
  zerohalf         :       0.00       0.00          3          0          0          0          0          0
Cutselectors       :   ExecTime  SetupTime
  hybrid           :       0.00       0.00
Pricers            :   ExecTime  SetupTime      Calls       Vars
  problem variables:       0.00          -          0          0
Branching Rules    :   ExecTime  SetupTime   BranchLP  BranchExt   BranchPS    Cutoffs    DomReds       Cuts      Conss   Children
  allfullstrong    :       0.00       0.00          0          0          0          0          0          0          0          0
  cloud            :       0.00       0.00          0          0          0          0          0          0          0          0
  distribution     :       0.00       0.00          0          0          0          0          0          0          0          0
  fullstrong       :       0.00       0.00          0          0          0          0          0          0          0          0
  inference        :       0.00       0.00          0          0          0          0          0          0          0          0
  leastinf         :       0.00       0.00          0          0          0          0          0          0          0          0
  lookahead        :       0.00       0.00          0          0          0          0          0          0          0          0
  mostinf          :       0.00       0.00          0          0          0          0          0          0          0          0
  multaggr         :       0.00       0.00          0          0          0          0          0          0          0          0
  nodereopt        :       0.00       0.00          0          0          0          0          0          0          0          0
  pscost           :       0.00       0.00          0          0          0          0          0          0          0          0
  random           :       0.00       0.00          0          0          0          0          0          0          0          0
  relpscost        :       0.00       0.00          0          0          0          0          0          0          0          0
  vanillafullstrong:       0.00       0.00          0          0          0          0          0          0          0          0
Primal Heuristics  :   ExecTime  SetupTime      Calls      Found       Best
  LP solutions     :       0.00          -          -          0          0
  relax solutions  :       0.00          -          -          0          0
  pseudo solutions :       0.00          -          -          0          0
  strong branching :       0.00          -          -          0          0
  actconsdiving    :       0.00       0.00          0          0          0
  adaptivediving   :       0.00       0.00          0          0          0
  alns             :       0.00       0.00          0          0          0
  bound            :       0.00       0.00          0          0          0
  clique           :       0.00       0.00          1          0          0
  coefdiving       :       0.00       0.00          0          0          0
  completesol      :       0.00       0.00          0          0          0
  conflictdiving   :       0.00       0.00          0          0          0
  crossover        :       0.00       0.00          0          0          0
  dins             :       0.00       0.00          0          0          0
  distributiondivin:       0.00       0.00          0          0          0
  dps              :       0.00       0.00          0          0          0
  dualval          :       0.00       0.00          0          0          0
  farkasdiving     :       0.00       0.00          0          0          0
  feaspump         :       0.00       0.00          0          0          0
  fixandinfer      :       0.00       0.00          0          0          0
  fracdiving       :       0.00       0.00          0          0          0
  gins             :       0.00       0.00          0          0          0
  guideddiving     :       0.00       0.00          0          0          0
  indicator        :       0.00       0.00          0          0          0
  intdiving        :       0.00       0.00          0          0          0
  intshifting      :       0.00       0.00          0          0          0
  linesearchdiving :       0.00       0.00          0          0          0
  localbranching   :       0.00       0.00          0          0          0
  locks            :       0.00       0.00          1          1          1
  lpface           :       0.00       0.00          0          0          0
  mpec             :       0.00       0.00          0          0          0
  multistart       :       0.00       0.00          0          0          0
  mutation         :       0.00       0.00          0          0          0
  nlpdiving        :       0.00       0.00          0          0          0
  objpscostdiving  :       0.00       0.00          0          0          0
  octane           :       0.00       0.00          0          0          0
  ofins            :       0.00       0.00          0          0          0
  oneopt           :       0.00       0.00          1          0          0
  padm             :       0.00       0.00          0          0          0
  proximity        :       0.00       0.00          0          0          0
  pscostdiving     :       0.00       0.00          0          0          0
  randrounding     :       0.00       0.00          4          0          0
  rens             :       0.00       0.00          0          0          0
  reoptsols        :       0.00       0.00          0          0          0
  repair           :       0.00       0.00          0          0          0
  rins             :       0.00       0.00          0          0          0
  rootsoldiving    :       0.00       0.00          0          0          0
  rounding         :       0.00       0.00          4          0          0
  shiftandpropagate:       0.00       0.00          0          0          0
  shifting         :       0.00       0.00          4          1          1
  simplerounding   :       0.00       0.00          0          0          0
  subnlp           :       0.00       0.00          0          0          0
  trivial          :       0.00       0.00          2          0          0
  trivialnegation  :       0.00       0.00          0          0          0
  trustregion      :       0.00       0.00          0          0          0
  trysol           :       0.00       0.00          0          0          0
  twoopt           :       0.00       0.00          0          0          0
  undercover       :       0.00       0.00          0          0          0
  vbounds          :       0.00       0.00          0          0          0
  veclendiving     :       0.00       0.00          0          0          0
  zeroobj          :       0.00       0.00          0          0          0
  zirounding       :       0.00       0.00          0          0          0
  other solutions  :          -          -          -          0          -
Diving (single)    :      Calls      Nodes   LP Iters Backtracks  Conflicts   MinDepth   MaxDepth   AvgDepth  RoundSols  NLeafSols  MinSolDpt  MaxSolDpt  AvgSolDpt
  actconsdiving    :          0          -          -          -          -          -          -          -          -          -          -          -          -
  coefdiving       :          0          -          -          -          -          -          -          -          -          -          -          -          -
  conflictdiving   :          0          -          -          -          -          -          -          -          -          -          -          -          -
  distributiondivin:          0          -          -          -          -          -          -          -          -          -          -          -          -
  farkasdiving     :          0          -          -          -          -          -          -          -          -          -          -          -          -
  fracdiving       :          0          -          -          -          -          -          -          -          -          -          -          -          -
  guideddiving     :          0          -          -          -          -          -          -          -          -          -          -          -          -
  linesearchdiving :          0          -          -          -          -          -          -          -          -          -          -          -          -
  pscostdiving     :          0          -          -          -          -          -          -          -          -          -          -          -          -
  veclendiving     :          0          -          -          -          -          -          -          -          -          -          -          -          -
Diving (adaptive)  :      Calls      Nodes   LP Iters Backtracks  Conflicts   MinDepth   MaxDepth   AvgDepth  RoundSols  NLeafSols  MinSolDpt  MaxSolDpt  AvgSolDpt
  actconsdiving    :          0          -          -          -          -          -          -          -          -          -          -          -          -
  coefdiving       :          0          -          -          -          -          -          -          -          -          -          -          -          -
  conflictdiving   :          0          -          -          -          -          -          -          -          -          -          -          -          -
  distributiondivin:          0          -          -          -          -          -          -          -          -          -          -          -          -
  farkasdiving     :          0          -          -          -          -          -          -          -          -          -          -          -          -
  fracdiving       :          0          -          -          -          -          -          -          -          -          -          -          -          -
  guideddiving     :          0          -          -          -          -          -          -          -          -          -          -          -          -
  linesearchdiving :          0          -          -          -          -          -          -          -          -          -          -          -          -
  pscostdiving     :          0          -          -          -          -          -          -          -          -          -          -          -          -
  veclendiving     :          0          -          -          -          -          -          -          -          -          -          -          -          -
Neighborhoods      :      Calls  SetupTime  SolveTime SolveNodes       Sols       Best       Exp3  EpsGreedy        UCB TgtFixRate  Opt  Inf Node Stal  Sol  Usr Othr Actv
  rens             :          0       0.00       0.00          0          0          0    0.00000   -1.00000    1.00000      0.900    0    0    0    0    0    0    0    1
  rins             :          0       0.00       0.00          0          0          0    0.00000   -1.00000    1.00000      0.900    0    0    0    0    0    0    0    1
  mutation         :          0       0.00       0.00          0          0          0    0.00000   -1.00000    1.00000      0.900    0    0    0    0    0    0    0    1
  localbranching   :          0       0.00       0.00          0          0          0    0.00000   -1.00000    1.00000      0.900    0    0    0    0    0    0    0    1
  crossover        :          0       0.00       0.00          0          0          0    0.00000   -1.00000    1.00000      0.900    0    0    0    0    0    0    0    1
  proximity        :          0       0.00       0.00          0          0          0    0.00000   -1.00000    1.00000      0.900    0    0    0    0    0    0    0    1
  zeroobjective    :          0       0.00       0.00          0          0          0    0.00000   -1.00000    1.00000      0.900    0    0    0    0    0    0    0    1
  dins             :          0       0.00       0.00          0          0          0    0.00000   -1.00000    1.00000      0.900    0    0    0    0    0    0    0    1
  trustregion      :          0       0.00       0.00          0          0          0    0.00000   -1.00000    1.00000      0.900    0    0    0    0    0    0    0    0
LP                 :       Time      Calls Iterations  Iter/call   Iter/sec  Time-0-It Calls-0-It    ItLimit
  primal LP        :       0.00          0          0       0.00          -       0.00          0
  dual LP          :       0.00          6        114      28.50          -       0.00          2
  lex dual LP      :       0.00          0          0       0.00          -
  barrier LP       :       0.00          0          0       0.00          -       0.00          0
  resolve instable :       0.00          0          0       0.00          -
  diving/probing LP:       0.00          1          5       5.00          -
  strong branching :       0.00          0          0       0.00          -          -          -          0
    (at root node) :          -          0          0       0.00          -
  conflict analysis:       0.00          0          0       0.00          -
B&B Tree           :
  number of runs   :          1
  nodes            :          1 (0 internal, 1 leaves)
  feasible leaves  :          0
  infeas. leaves   :          0
  objective leaves :          1
  nodes (total)    :          1 (0 internal, 1 leaves)
  nodes left       :          0
  max depth        :          0
  max depth (total):          0
  backtracks       :          0 (0.0%)
  early backtracks :          0 (0.0%)
  nodes exc. ref.  :          0 (0.0%)
  delayed cutoffs  :          0
  repropagations   :          0 (0 domain reductions, 0 cutoffs)
  avg switch length:       2.00
  switching time   :       0.00
Estim. Tree Size   :          1
Estimation Tree    : 1 nodes (1 visited, 0 internal, 1 leaves, 0 open), weight: 1.0000 completed 1.0000
Estimations        :      estim      value      trend resolution     smooth
  wbe              :          1          -          -          -          -
  tree-profile     :         -1          -          -          -          -
  gap              :          1    1.00000    1.00000          1          1
  tree-weight      :          1    1.00000    1.00000          1          1
  leaf-frequency   :          1    0.50000    1.00000          1          1
  ssg              :          1    0.00000   -1.00000          1          1
  open-nodes       :          1    0.00000    0.00000          1          1
Root Node          :
  First LP value   : -1.73179723502304e+00
  First LP Iters   :        110 (82458.77 Iter/sec)
  First LP Time    :       0.00
  Final Dual Bound : -1.73179723502304e+00
  Final Root Iters :        114
  Root LP Estimate :                     -
Solution           :
  Solutions found  :          2 (2 improvements)
  First Solution   : -1.00000000000000e+00   (in run 1, after 1 nodes, 0.24 seconds, depth 4, found by <locks>)
  Gap First Sol.   :    4700.24 %
  Gap Last Sol.    :       0.00 %
  Primal Bound     : -1.73179723502304e+00   (in run 1, after 1 nodes, 0.25 seconds, depth 0, found by <shifting>)
  Dual Bound       : -1.73179723502304e+00
  Gap              :       0.00 %
Integrals          :      Total       Avg%
  primal-dual      :      24.65      98.09
  primal-ref       :          -          - (not evaluated)
  dual-ref         :          -          - (not evaluated)
